TCS_Benchmarks/redos_fix/corpus2_output_distinct_4119_4118_21_0.txt
((Cookie: [^\r]*\r\n)*)([^\r]*)
((Cookie: [^\r]*\r\n)*)((Cookie2: [^\r]*\r\n)?Cookie: )([^\r]*)